# opt pm6 geom=connectivity

V4.xyz

0 1
 C                 -0.46305800    2.19310500   -1.23310200
 C                 -2.46505300    3.31285200   -0.48103300
 C                 -3.09478300    1.98563000    0.00075900
 C                 -2.41216900    0.72735600   -0.58868200
 C                 -0.87231700    0.82319800   -0.61960400
 H                 -0.72501600    2.31364600   -2.30680800
 H                 -3.13885300    1.89964600    1.11146100
 H                 -2.84940400    0.47997700   -1.59084500
 H                 -0.49979500    0.76003900    0.45261400
 H                 -2.76652100    3.53047700   -1.53361200
 C                 -4.18768100   -1.77528800   -1.03045100
 C                 -3.77546000   -1.13602300    0.31653900
 C                 -6.07829800   -0.82068600    1.04735600
 C                 -6.63426000   -1.65686100   -0.12517700
 C                 -5.56983200   -2.46321500   -0.90476100
 H                 -3.58382600   -1.89761600    1.11782300
 N                 -0.20166300   -0.25774300   -1.36253900
 H                  0.73197200   -0.50098100   -0.98389500
 C                 -0.62788600   -0.79664300   -2.56938400
 C                  0.31675900   -1.77220000   -3.20113400
 H                  0.22482100   -2.77430800   -2.76086700
 H                  0.10081400   -1.87482900   -4.27714300
 H                  1.37708700   -1.47131700   -3.11246100
 C                 -2.80247900    4.48896700    0.44425300
 H                 -2.28092200    4.41367800    1.41435300
 H                 -3.90121700    4.56192400    0.59839600
 O                 -1.71665200   -0.50288600   -3.06266800
 O                 -2.46888000    5.73214700   -0.17545200
 H                 -1.52880600    5.72294900   -0.46180900
 O                 -4.42949600    2.10426200   -0.49793800
 H                 -4.89651800    1.21534000   -0.46736400
 O                 -1.01371700    3.23941500   -0.41946400
 O                 -2.61177800   -0.36562200    0.35058600
 O                 -4.82114200   -0.21992300    0.78519000
 H                 -7.44126000   -2.34143900    0.24625000
 H                 -3.41307400   -2.52073600   -1.33021200
 O                 -4.38652800   -0.81907800   -2.06528800
 H                 -3.54395400   -0.71625400   -2.61754300
 O                 -5.31685000   -3.65948900   -0.15228800
 H                 -5.85838800   -4.40411400   -0.48446400
 H                 -5.94117400   -2.71162900   -1.92813200
 C                 -5.97830600   -1.68514900    2.31123800
 O                 -5.02398800   -2.07407000    2.93021300
 O                 -7.25570400   -1.99485800    2.72370700
 H                 -7.27247500   -2.54499000    3.55283800
 H                 -6.72582500    0.07448800    1.26445900
 C                  4.61859000   -3.48035700    0.25538200
 C                  3.89945200   -2.39681600   -1.77213100
 C                  3.91302000   -1.00069700   -1.10735600
 C                  3.82521600   -1.08967700    0.43390400
 C                  4.79638200   -2.14073000    1.02505300
 H                  3.65111900   -3.99572100    0.42680000
 H                  4.78437500   -0.37599100   -1.40793400
 H                  2.76320400   -1.25572700    0.74816600
 H                  5.84638000   -1.75155400    0.86854400
 H                  2.88858500   -2.86116100   -1.68854400
 C                  2.16921600    1.26007100    1.65461000
 C                  3.60133600    1.30798700    1.06679800
 C                  3.04655800    3.02903400   -0.57709400
 C                  1.57082500    3.09714800   -0.13195300
 C                  1.31130700    2.48561100    1.26022800
 H                  4.27435500    1.99359200    1.65159200
 N                  4.61527900   -2.37400200    2.47321600
 H                  5.48350700   -2.47233100    2.99843700
 C                  3.38671200   -2.42487900    3.13084700
 C                  3.46311100   -2.70764400    4.60107000
 H                  3.99451000   -1.92307800    5.15773600
 H                  2.44490200   -2.76674100    5.02665000
 H                  3.95103100   -3.66719400    4.82508700
 C                  4.36021300   -2.35666700   -3.23759000
 H                  5.46237700   -2.39925900   -3.31671500
 H                  3.96558100   -1.45778000   -3.75581500
 O                  2.32960500   -2.25411200    2.53355600
 O                  3.77025400   -3.43965900   -3.95725000
 H                  4.16148900   -4.29240600   -3.66037100
 O                  2.71169200   -0.41607100   -1.62430700
 H                  2.63466500    0.54792300   -1.32361100
 O                  4.87148900   -3.25972500   -1.13526000
 O                  4.34690000    0.12543300    1.03679800
 O                  3.62584000    1.75502900   -0.32792800
 H                  1.18849200    4.14831700   -0.16319600
 H                  2.25491200    1.22084500    2.77056700
 O                  1.38915500    0.15459000    1.19932900
 H                  1.50919900   -0.64450800    1.80311300
 O                  1.66274900    3.48230500    2.23185500
 H                  0.90365100    4.08050500    2.40513600
 H                  0.22701800    2.21217000    1.35287100
 C                  3.87747300    4.13197100    0.08293000
 O                  4.75935100    4.06173200    0.89876000
 O                  3.47651800    5.34247900   -0.42576800
 H                  3.98509900    6.11124000   -0.04420300
 H                  3.12041800    3.10750500   -1.69917900
 O                  0.94711500    2.36937800   -1.21094700
 O                 -7.26219353   -0.75270030   -1.03791623

 1 5 1.0 6 1.0 32 1.0 93 1.0
 2 3 1.0 10 1.0 24 1.0 32 1.0
 3 4 1.0 7 1.0 30 1.0
 4 5 1.0 8 1.0 33 1.0
 5 17 1.0
 6
 7
 8
 9
 10
 11 12 1.0 15 1.0 36 1.0 37 1.0
 12 16 1.0 33 1.0 34 1.0
 13 14 1.0 34 1.0 42 1.0 46 1.0
 14 15 1.0 35 1.0 94 1.0
 15 39 1.0 41 1.0
 16
 17 18 1.0 19 1.0
 18
 19 20 1.0 27 2.0
 20 21 1.0 22 1.0 23 1.0
 21
 22
 23
 24 25 1.0 26 1.0 28 1.0
 25
 26
 27
 28 29 1.0
 29
 30 31 1.0
 31
 32
 33
 34
 35
 36
 37 38 1.0
 38
 39 40 1.0
 40
 41
 42 43 2.0 44 1.0
 43
 44 45 1.0
 45
 46
 47 51 1.0 52 1.0 78 1.0
 48 49 1.0 56 1.0 70 1.0 78 1.0
 49 50 1.0 53 1.0 76 1.0
 50 51 1.0 54 1.0 79 1.0
 51 55 1.0 63 1.0
 52
 53
 54
 55
 56
 57 58 1.0 61 1.0 82 1.0 83 1.0
 58 62 1.0 79 1.0 80 1.0
 59 60 1.0 80 1.0 88 1.0 92 1.0
 60 61 1.0 81 1.0 93 1.0
 61 85 1.0 87 1.0
 62
 63 64 1.0 65 1.0
 64
 65 66 1.0 73 2.0
 66 67 1.0 68 1.0 69 1.0
 67
 68
 69
 70 71 1.0 72 1.0 74 1.0
 71
 72
 73
 74 75 1.0
 75
 76 77 1.0
 77
 78
 79
 80
 81
 82
 83 84 1.0
 84
 85 86 1.0
 86
 87
 88 89 2.0 90 1.0
 89
 90 91 1.0
 91
 92
 93
 94

